50
750
522
513
502
488
466
449
439
430
429
397
395
388
384
375
357
350
337
322
319
318
317
294
290
280
273
270
269
268
261
257
252
245
245
241
238
235
228
226
216
204
196
184
157
144
141
120
115
113
103
96
